0
0
0
0
20
0
0
0
0
0
0
0
0
0
0
0
0
0
0
0
0
0
0
0
0
1 2 0
1 3 1
1 4 0
1 5 1
1 6 0
1 7 1
1 8 0
1 9 0
1 10 0
1 11 0
1 12 1
1 13 1
1 14 0
1 15 1
1 16 1
1 17 1
1 18 0
1 19 0
1 20 0
2 3 1
2 4 0
2 5 0
2 6 1
2 7 1
2 8 1
2 9 1
2 10 0
2 11 1
2 12 0
2 13 0
2 14 0
2 15 1
2 16 0
2 17 0
2 18 1
2 19 0
2 20 1
3 4 1
3 5 1
3 6 0
3 7 0
3 8 0
3 9 1
3 10 1
3 11 0
3 12 1
3 13 1
3 14 1
3 15 1
3 16 0
3 17 0
3 18 1
3 19 0
3 20 1
4 5 0
4 6 1
4 7 1
4 8 1
4 9 0
4 10 1
4 11 0
4 12 1
4 13 1
4 14 1
4 15 0
4 16 0
4 17 1
4 18 1
4 19 1
4 20 1
5 6 0
5 7 0
5 8 0
5 9 1
5 10 1
5 11 0
5 12 0
5 13 1
5 14 1
5 15 1
5 16 0
5 17 1
5 18 1
5 19 0
5 20 0
6 7 1
6 8 0
6 9 0
6 10 0
6 11 1
6 12 1
6 13 1
6 14 1
6 15 0
6 16 1
6 17 1
6 18 0
6 19 0
6 20 0
7 8 1
7 9 0
7 10 0
7 11 0
7 12 0
7 13 1
7 14 0
7 15 1
7 16 1
7 17 0
7 18 1
7 19 1
7 20 0
8 9 1
8 10 0
8 11 0
8 12 1
8 13 1
8 14 0
8 15 0
8 16 1
8 17 1
8 18 1
8 19 0
8 20 0
9 10 1
9 11 0
9 12 0
9 13 1
9 14 0
9 15 1
9 16 1
9 17 1
9 18 0
9 19 0
9 20 1
10 11 0
10 12 1
10 13 0
10 14 1
10 15 0
10 16 1
10 17 0
10 18 0
10 19 0
10 20 0
11 12 0
11 13 0
11 14 1
11 15 1
11 16 0
11 17 0
11 18 1
11 19 0
11 20 1
12 13 1
12 14 0
12 15 0
12 16 1
12 17 0
12 18 0
12 19 0
12 20 1
13 14 1
13 15 1
13 16 1
13 17 0
13 18 1
13 19 0
13 20 0
14 15 0
14 16 1
14 17 0
14 18 1
14 19 0
14 20 0
15 16 0
15 17 0
15 18 0
15 19 1
15 20 1
16 17 0
16 18 1
16 19 1
16 20 1
17 18 0
17 19 1
17 20 0
18 19 0
18 20 1
19 20 1
